proyfinal/src/viki/013/experimentInOfficeAgust.take6.output/12fd4a43-7772-4e7d-a995-01f0a75d6239.als.out
Reading from standard input... Use '--help' for help.
============================[ Problem Statistics ]=============================
|                                                                             |
|  Number of variables:         87638                                         |
|  Number of clauses:          161767                                         |
|  Parse time:                   0.04 s                                       |
|                                                                             |
============================[ Search Statistics ]==============================
| Conflicts |          ORIGINAL         |          LEARNT          | Progress |
|           |    Vars  Clauses Literals |    Limit  Clauses Lit/Cl |          |
===============================================================================
|       100 |   63746   110122   275375 |    40378      100     12 | 27.262 % |
|       250 |   63746   110122   275375 |    44415      250     25 | 27.262 % |
|       475 |   63746   110122   275375 |    48857      475     64 | 27.262 % |
|       812 |   63726   110038   275182 |    53743      811     62 | 27.285 % |
|      1318 |   63725   109994   275092 |    59117     1315     85 | 27.286 % |
|      2077 |   63725   109994   275092 |    65029     2074     86 | 27.286 % |
|      3216 |   63725   109994   275092 |    71532     3213    101 | 27.286 % |
|      4924 |   63707   109920   274921 |    78685     4093    106 | 27.307 % |
|      7486 |   63576   109536   274036 |    86553     6398    115 | 27.456 % |
|     11330 |   47835    62535   158522 |    95209     8822    102 | 45.418 % |
===============================================================================
restarts              : 52
conflicts             : 12004          (5511 /sec)
decisions             : 44696          (0.00 % random) (20521 /sec)
propagations          : 20431115       (9380229 /sec)
conflict literals     : 1202135        (45.49 % deleted)
Memory used           : 41.40 MB
CPU time              : 2.1781 s

UNSATISFIABLE
